proyfinal/src/viki/013/experimentInOfficeAgust.take6.output/5c602ae6-3320-48d9-b9a3-e2605a51bbb3.als.out
Reading from standard input... Use '--help' for help.
============================[ Problem Statistics ]=============================
|                                                                             |
|  Number of variables:         87638                                         |
|  Number of clauses:          161767                                         |
|  Parse time:                   0.04 s                                       |
|                                                                             |
============================[ Search Statistics ]==============================
| Conflicts |          ORIGINAL         |          LEARNT          | Progress |
|           |    Vars  Clauses Literals |    Limit  Clauses Lit/Cl |          |
===============================================================================
|       100 |   62296   104862   262040 |    38449       99     43 | 28.917 % |
|       250 |   62296   104818   261950 |    42294      249     64 | 28.917 % |
|       475 |   62296   104818   261950 |    46523      474     79 | 28.917 % |
|       812 |   62294   104815   261944 |    51176      809     71 | 28.919 % |
|      1318 |   62286   104780   261850 |    56293     1212     76 | 28.928 % |
|      2077 |   62176   104364   260774 |    61923     1794     93 | 29.054 % |
|      3216 |   62176   104364   260774 |    68115     2933    110 | 29.054 % |
|      4924 |   47780    63403   160335 |    74927     4174     96 | 45.480 % |
|      7486 |   47107    60709   153774 |    82419     6178     84 | 46.248 % |
===============================================================================
restarts              : 38
conflicts             : 9095           (6844 /sec)
decisions             : 30316          (0.00 % random) (22813 /sec)
propagations          : 13921286       (10475710 /sec)
conflict literals     : 648210         (43.83 % deleted)
Memory used           : 32.08 MB
CPU time              : 1.32891 s

UNSATISFIABLE
